p cnf 58 38
-1 54 -21 -26 -31 0 
-2 32 -3 -4 10 18 45 54 -21 -26 -31 0 
-5 55 0 
-6 11 -7 -3 54 -21 -26 -31 0 
-8 56 0 
-9 19 34 35 48 56 0 
-2 32 -10 4 18 45 54 -21 -26 -31 0 
-11 6 56 0 
-2 32 -12 54 -21 -26 -31 0 
-13 22 38 -14 36 -7 -3 -15 33 54 -21 -26 -31 0 
-3 -16 39 49 -17 -13 22 38 -18 4 10 45 54 -21 -26 -31 0 
-2 32 -14 36 -3 54 -21 -26 -31 0 
-17 -19 9 34 35 48 -20 55 0 
-21 26 31 55 0 
-22 13 38 -23 -17 -24 -25 30 55 0 
-26 21 31 57 -9 -19 -34 -35 -48 0 
-27 -12 -28 54 -21 -26 -31 0 
-29 54 -21 -26 -31 0 
-30 25 54 -21 -26 -31 0 
-31 21 26 -32 2 -23 -33 15 55 0 
-34 9 19 35 48 55 0 
-20 56 0 
-35 9 19 34 48 55 0 
-12 54 -21 -26 -31 0 
-36 14 -7 -3 -6 11 54 -21 -26 -31 0 
-37 54 -21 -26 -31 0 
-38 13 22 54 -21 -26 -31 0 
-39 16 49 -40 -20 -41 55 0 
-42 54 -21 -26 -31 0 
-17 -43 -44 -45 4 10 18 54 -21 -26 -31 0 
-46 58 0 
-17 -3 -38 13 22 54 -21 -26 -31 0 
-47 54 -21 -26 -31 0 
-48 9 19 34 35 55 0 
-49 16 39 -22 13 38 -32 2 -23 55 0 
-50 56 0 
-3 -51 -52 -27 54 -21 -26 -31 0 
-52 -53 -14 36 -3 54 -21 -26 -31 0 
